param set_len = 24;
param target = 3076034755;
param values := [0] 113703764 [1] 44842211 [2] 92426059 [3] 245124094 [4] 119344321 [5] 72218952 [6] 452253988 [7] 122013353 [8] 467879859 [9] 73747641 [10] 234731711 [11] 395080915 [12] 260767600 [13] 70333508 [14] 153489370 [15] 274313384 [16] 394251214 [17] 163136897 [18] 148353553 [19] 206616495 [20] 9777642 [21] 337925794 [22] 24947512 [23] 109910087 ;
